(set-info :source |printed by MathSAT|)
(declare-fun call__main_.call_controleur.ite2.next () Bool)
(declare-fun call__main_.flby3.next () Int)
(declare-fun call__main_.retard0 () Bool)
(declare-fun nB1 () Int)
(declare-fun call__main_.ast.next () Bool)
(declare-fun call__main_.call_controleur2.avance.next () Bool)
(declare-fun call__main_.call_hypothese2.ok.next () Bool)
(declare-fun call__main_.call_hypothese2.flby2 () Int)
(declare-fun call__main_.call_hypothese2.ite2.next () Bool)
(declare-fun call__main_.call_controleur2.diff.next () Int)
(declare-fun call__main_.call_controleur.flby.next () Bool)
(declare-fun call_Sofar.flby () Bool)
(declare-fun call__main_.call_hypothese2.c () Int)
(declare-fun call__main_._H0_ () Bool)
(declare-fun call__main_.diff1 () Int)
(declare-fun call_Sofar.Sofar () Bool)
(declare-fun call__main_._H1_.next () Bool)
(declare-fun call__main_.nB1 () Int)
(declare-fun call_Sofar.flby.next () Bool)
(declare-fun call__main_.call_hypothese.ite.next () Bool)
(declare-fun diff1.next () Int)
(declare-fun retard0.next () Bool)
(declare-fun call__main_.ite2.next () Int)
(declare-fun flby.next () Bool)
(declare-fun nS.next () Int)
(declare-fun nB0.next () Int)
(declare-fun call__main_.ast () Bool)
(declare-fun call__main_.call_hypothese2.ite.next () Bool)
(declare-fun call__main_.ite3.next () Int)
(declare-fun call__main_.call_hypothese2.c.next () Int)
(declare-fun avance0.next () Bool)
(declare-fun avance0 () Bool)
(declare-fun call__main_.call_controleur2.retard.next () Bool)
(declare-fun call__main_.call_hypothese2.flby2.next () Int)
(declare-fun call__main_.call_controleur.avance.next () Bool)
(declare-fun call__main_.call_controleur.flby2 () Bool)
(declare-fun retard0 () Bool)
(declare-fun call__main_.call_hypothese.flby () Bool)
(declare-fun retard1 () Bool)
(declare-fun call_Sofar.Sofar.next () Bool)
(declare-fun call__main_.call_controleur2.flby () Bool)
(declare-fun call__main_.call_hypothese.flby2 () Int)
(declare-fun nS () Int)
(declare-fun call__main_.diff0.next () Int)
(declare-fun call__main_.retard1 () Bool)
(declare-fun call__main_.call_hypothese.ok () Bool)
(declare-fun call__main_.avance1 () Bool)
(declare-fun call__main_.call_controleur2.avance () Bool)
(declare-fun diff0.next () Int)
(declare-fun call__main_.call_hypothese2.ok () Bool)
(declare-fun diff0 () Int)
(declare-fun call__main_.call_controleur.retard () Bool)
(declare-fun ast.next () Bool)
(declare-fun call__main_.call_hypothese.flby2.next () Int)
(declare-fun call__main_.call_hypothese.c () Int)
(declare-fun call__main_.call_controleur.ite.next () Bool)
(declare-fun call__main_.nS () Int)
(declare-fun call__main_.call_controleur2.flby2.next () Bool)
(declare-fun call__main_.nB0.next () Int)
(declare-fun call__main_.call_hypothese2.flby.next () Bool)
(declare-fun _OK_.next () Bool)
(declare-fun flby () Bool)
(declare-fun call__main_.nB0 () Int)
(declare-fun call__main_.flby3 () Int)
(declare-fun call__main_.diff0 () Int)
(declare-fun call__main_.call_hypothese.ite2.next () Bool)
(declare-fun call__main_.call_controleur.flby2.next () Bool)
(declare-fun call__main_.retard0.next () Bool)
(declare-fun call__main_.flby2.next () Int)
(declare-fun call__main_.call_hypothese.c.next () Int)
(declare-fun call__main_._H0_.next () Bool)
(declare-fun call__main_.call_controleur.diff () Int)
(declare-fun _OK_ () Bool)
(declare-fun call__main_.call_hypothese2.ite4.next () Int)
(declare-fun call__main_.flby2 () Int)
(declare-fun call__main_.call_controleur2.retard () Bool)
(declare-fun nB1.next () Int)
(declare-fun call__main_.ite.next () Int)
(declare-fun call__main_.avance1.next () Bool)
(declare-fun call__main_.call_hypothese.ok.next () Bool)
(declare-fun call__main_.call_controleur.flby () Bool)
(declare-fun call__main_.call_hypothese2.flby () Bool)
(declare-fun param__S_.next () Bool)
(declare-fun call__main_.nB1.next () Int)
(declare-fun call__main_.diff1.next () Int)
(declare-fun retard1.next () Bool)
(declare-fun call__main_.flby.next () Int)
(declare-fun call__main_.call_hypothese.ite3.next () Int)
(declare-fun call__main_.call_controleur2.diff () Int)
(declare-fun avance1.next () Bool)
(declare-fun call__main_.avance0.next () Bool)
(declare-fun call__main_.flby () Int)
(declare-fun call__main_.call_controleur.retard.next () Bool)
(declare-fun nB0 () Int)
(declare-fun call__main_.call_controleur2.flby2 () Bool)
(declare-fun call__main_.call_hypothese.flby.next () Bool)
(declare-fun call__main_.call_controleur.avance () Bool)
(declare-fun call__main_.call_controleur2.ite.next () Bool)
(declare-fun call__main_.avance0 () Bool)
(declare-fun call__main_.call_controleur2.flby.next () Bool)
(declare-fun call__main_.call_controleur.diff.next () Int)
(declare-fun param__B1_.next () Bool)
(declare-fun call__main_._H1_ () Bool)
(declare-fun param__B0_.next () Bool)
(declare-fun call__main_.call_hypothese.ite4.next () Int)
(declare-fun call__main_.call_controleur2.ite2.next () Bool)
(declare-fun call__main_.nS.next () Int)
(declare-fun avance1 () Bool)
(declare-fun call__main_.retard1.next () Bool)
(declare-fun diff1 () Int)
(declare-fun call__main_.call_hypothese2.ite3.next () Int)
(declare-fun ast () Bool)
(define-fun .def_911 () Bool (= call_Sofar.Sofar.next call_Sofar.flby.next))
(define-fun .def_909 () Bool (= call__main_.call_controleur2.flby2.next call__main_.call_controleur2.retard.next))
(define-fun .def_907 () Bool (= call__main_.call_controleur2.flby.next call__main_.call_controleur2.avance.next))
(define-fun .def_900 () Int (* (- 1) call__main_.nB1.next))
(define-fun .def_903 () Int (+ .def_900 call__main_.nS.next))
(define-fun .def_904 () Int (+ call__main_.call_controleur2.diff.next .def_903))
(define-fun .def_905 () Bool (= .def_904 0))
(define-fun .def_898 () Bool (= call__main_.call_controleur.flby2.next call__main_.call_controleur.retard.next))
(define-fun .def_896 () Bool (= call__main_.call_controleur.flby.next call__main_.call_controleur.avance.next))
(define-fun .def_889 () Int (* (- 1) call__main_.nB0.next))
(define-fun .def_892 () Int (+ .def_889 call__main_.nS.next))
(define-fun .def_893 () Int (+ call__main_.call_controleur.diff.next .def_892))
(define-fun .def_894 () Bool (= .def_893 0))
(define-fun .def_887 () Bool (= call__main_.call_hypothese2.flby2.next call__main_.call_hypothese2.c.next))
(define-fun .def_884 () Bool (= call__main_.call_hypothese2.flby.next call__main_.call_hypothese2.ok.next))
(define-fun .def_882 () Bool (= call__main_.call_hypothese.flby2.next call__main_.call_hypothese.c.next))
(define-fun .def_879 () Bool (= call__main_.call_hypothese.flby.next call__main_.call_hypothese.ok.next))
(define-fun .def_877 () Bool (= call__main_._H1_.next call__main_.call_hypothese2.ok.next))
(define-fun .def_874 () Bool (= call__main_._H0_.next call__main_.call_hypothese.ok.next))
(define-fun .def_871 () Bool (= call__main_.retard1.next call__main_.call_controleur2.retard.next))
(define-fun .def_868 () Bool (= call__main_.retard0.next call__main_.call_controleur.retard.next))
(define-fun .def_865 () Bool (= call__main_.avance1.next call__main_.call_controleur2.avance.next))
(define-fun .def_862 () Bool (= call__main_.avance0.next call__main_.call_controleur.avance.next))
(define-fun .def_859 () Bool (= call__main_.call_controleur2.diff.next call__main_.diff1.next))
(define-fun .def_857 () Bool (= call__main_.call_controleur.diff.next call__main_.diff0.next))
(define-fun .def_855 () Bool (= call__main_.flby3.next call__main_.nS.next))
(define-fun .def_853 () Bool (= call__main_.flby2.next call__main_.nB1.next))
(define-fun .def_851 () Bool (= call__main_.flby.next call__main_.nB0.next))
(define-fun .def_848 () Bool (and call__main_._H0_.next call__main_._H1_.next))
(define-fun .def_849 () Bool (= call__main_.ast.next .def_848))
(define-fun .def_844 () Bool (= ast.next call__main_.ast.next))
(define-fun .def_841 () Bool (= retard1.next call__main_.retard1.next))
(define-fun .def_837 () Bool (= retard0.next call__main_.retard0.next))
(define-fun .def_833 () Bool (= call__main_.avance1.next avance1.next))
(define-fun .def_830 () Bool (= call__main_.avance0.next avance0.next))
(define-fun .def_827 () Bool (= diff1.next call__main_.diff1.next))
(define-fun .def_823 () Bool (= diff0.next call__main_.diff0.next))
(define-fun .def_819 () Bool (= nS.next call__main_.nS.next))
(define-fun .def_815 () Bool (= nB1.next call__main_.nB1.next))
(define-fun .def_811 () Bool (= nB0.next call__main_.nB0.next))
(define-fun .def_808 () Bool (= flby.next _OK_.next))
(define-fun .def_812 () Bool (and .def_808 .def_811))
(define-fun .def_816 () Bool (and .def_812 .def_815))
(define-fun .def_820 () Bool (and .def_816 .def_819))
(define-fun .def_824 () Bool (and .def_820 .def_823))
(define-fun .def_828 () Bool (and .def_824 .def_827))
(define-fun .def_831 () Bool (and .def_828 .def_830))
(define-fun .def_834 () Bool (and .def_831 .def_833))
(define-fun .def_838 () Bool (and .def_834 .def_837))
(define-fun .def_842 () Bool (and .def_838 .def_841))
(define-fun .def_845 () Bool (and .def_842 .def_844))
(define-fun .def_850 () Bool (and .def_845 .def_849))
(define-fun .def_852 () Bool (and .def_850 .def_851))
(define-fun .def_854 () Bool (and .def_852 .def_853))
(define-fun .def_856 () Bool (and .def_854 .def_855))
(define-fun .def_858 () Bool (and .def_856 .def_857))
(define-fun .def_860 () Bool (and .def_858 .def_859))
(define-fun .def_863 () Bool (and .def_860 .def_862))
(define-fun .def_866 () Bool (and .def_863 .def_865))
(define-fun .def_869 () Bool (and .def_866 .def_868))
(define-fun .def_872 () Bool (and .def_869 .def_871))
(define-fun .def_875 () Bool (and .def_872 .def_874))
(define-fun .def_878 () Bool (and .def_875 .def_877))
(define-fun .def_880 () Bool (and .def_878 .def_879))
(define-fun .def_883 () Bool (and .def_880 .def_882))
(define-fun .def_885 () Bool (and .def_883 .def_884))
(define-fun .def_888 () Bool (and .def_885 .def_887))
(define-fun .def_895 () Bool (and .def_888 .def_894))
(define-fun .def_897 () Bool (and .def_895 .def_896))
(define-fun .def_899 () Bool (and .def_897 .def_898))
(define-fun .def_906 () Bool (and .def_899 .def_905))
(define-fun .def_908 () Bool (and .def_906 .def_907))
(define-fun .def_910 () Bool (and .def_908 .def_909))
(define-fun .def_912 () Bool (and .def_910 .def_911))
(define-fun .def_593 () Bool (= call_Sofar.Sofar call_Sofar.flby))
(define-fun .def_589 () Bool (= call__main_.call_controleur2.retard call__main_.call_controleur2.flby2))
(define-fun .def_586 () Bool (= call__main_.call_controleur2.avance call__main_.call_controleur2.flby))
(define-fun .def_580 () Int (* (- 1) call__main_.call_controleur2.diff))
(define-fun .def_566 () Int (* (- 1) call__main_.nS))
(define-fun .def_581 () Int (+ .def_566 .def_580))
(define-fun .def_582 () Int (+ call__main_.nB1 .def_581))
(define-fun .def_583 () Bool (= .def_582 0))
(define-fun .def_575 () Bool (= call__main_.call_controleur.retard call__main_.call_controleur.flby2))
(define-fun .def_572 () Bool (= call__main_.call_controleur.avance call__main_.call_controleur.flby))
(define-fun .def_565 () Int (* (- 1) call__main_.call_controleur.diff))
(define-fun .def_567 () Int (+ .def_566 .def_565))
(define-fun .def_568 () Int (+ call__main_.nB0 .def_567))
(define-fun .def_569 () Bool (= .def_568 0))
(define-fun .def_560 () Bool (= call__main_.call_hypothese2.c call__main_.call_hypothese2.flby2))
(define-fun .def_556 () Bool (= call__main_.call_hypothese2.ok call__main_.call_hypothese2.flby))
(define-fun .def_553 () Bool (= call__main_.call_hypothese.c call__main_.call_hypothese.flby2))
(define-fun .def_549 () Bool (= call__main_.call_hypothese.ok call__main_.call_hypothese.flby))
(define-fun .def_546 () Bool (= call__main_._H1_ call__main_.call_hypothese2.ok))
(define-fun .def_543 () Bool (= call__main_._H0_ call__main_.call_hypothese.ok))
(define-fun .def_540 () Bool (= call__main_.retard1 call__main_.call_controleur2.retard))
(define-fun .def_537 () Bool (= call__main_.retard0 call__main_.call_controleur.retard))
(define-fun .def_534 () Bool (= call__main_.avance1 call__main_.call_controleur2.avance))
(define-fun .def_531 () Bool (= call__main_.avance0 call__main_.call_controleur.avance))
(define-fun .def_528 () Bool (= call__main_.diff1 call__main_.call_controleur2.diff))
(define-fun .def_525 () Bool (= call__main_.diff0 call__main_.call_controleur.diff))
(define-fun .def_522 () Bool (= call__main_.nS call__main_.flby3))
(define-fun .def_519 () Bool (= call__main_.nB1 call__main_.flby2))
(define-fun .def_516 () Bool (= call__main_.nB0 call__main_.flby))
(define-fun .def_512 () Bool (and call__main_._H0_ call__main_._H1_))
(define-fun .def_513 () Bool (= call__main_.ast .def_512))
(define-fun .def_508 () Bool (= call__main_.ast ast))
(define-fun .def_504 () Bool (= retard1 call__main_.retard1))
(define-fun .def_500 () Bool (= retard0 call__main_.retard0))
(define-fun .def_496 () Bool (= avance1 call__main_.avance1))
(define-fun .def_492 () Bool (= avance0 call__main_.avance0))
(define-fun .def_488 () Bool (= diff1 call__main_.diff1))
(define-fun .def_484 () Bool (= diff0 call__main_.diff0))
(define-fun .def_480 () Bool (= nS call__main_.nS))
(define-fun .def_476 () Bool (= nB1 call__main_.nB1))
(define-fun .def_472 () Bool (= nB0 call__main_.nB0))
(define-fun .def_469 () Bool (= _OK_ flby))
(define-fun .def_473 () Bool (and .def_469 .def_472))
(define-fun .def_477 () Bool (and .def_473 .def_476))
(define-fun .def_481 () Bool (and .def_477 .def_480))
(define-fun .def_485 () Bool (and .def_481 .def_484))
(define-fun .def_489 () Bool (and .def_485 .def_488))
(define-fun .def_493 () Bool (and .def_489 .def_492))
(define-fun .def_497 () Bool (and .def_493 .def_496))
(define-fun .def_501 () Bool (and .def_497 .def_500))
(define-fun .def_505 () Bool (and .def_501 .def_504))
(define-fun .def_509 () Bool (and .def_505 .def_508))
(define-fun .def_514 () Bool (and .def_509 .def_513))
(define-fun .def_517 () Bool (and .def_514 .def_516))
(define-fun .def_520 () Bool (and .def_517 .def_519))
(define-fun .def_523 () Bool (and .def_520 .def_522))
(define-fun .def_526 () Bool (and .def_523 .def_525))
(define-fun .def_529 () Bool (and .def_526 .def_528))
(define-fun .def_532 () Bool (and .def_529 .def_531))
(define-fun .def_535 () Bool (and .def_532 .def_534))
(define-fun .def_538 () Bool (and .def_535 .def_537))
(define-fun .def_541 () Bool (and .def_538 .def_540))
(define-fun .def_544 () Bool (and .def_541 .def_543))
(define-fun .def_547 () Bool (and .def_544 .def_546))
(define-fun .def_550 () Bool (and .def_547 .def_549))
(define-fun .def_554 () Bool (and .def_550 .def_553))
(define-fun .def_557 () Bool (and .def_554 .def_556))
(define-fun .def_561 () Bool (and .def_557 .def_560))
(define-fun .def_570 () Bool (and .def_561 .def_569))
(define-fun .def_573 () Bool (and .def_570 .def_572))
(define-fun .def_576 () Bool (and .def_573 .def_575))
(define-fun .def_584 () Bool (and .def_576 .def_583))
(define-fun .def_587 () Bool (and .def_584 .def_586))
(define-fun .def_590 () Bool (and .def_587 .def_589))
(define-fun .def_594 () Bool (and .def_590 .def_593))
(define-fun .def_913 () Bool (and .def_594 .def_912))
(define-fun .def_803 () Bool (and call_Sofar.Sofar ast.next))
(define-fun .def_805 () Bool (= .def_803 call_Sofar.flby.next))
(define-fun .def_800 () Bool (= call__main_.call_controleur2.ite2.next call__main_.call_controleur2.flby2.next))
(define-fun .def_797 () Bool (= call__main_.call_controleur2.ite.next call__main_.call_controleur2.flby.next))
(define-fun .def_790 () Bool (<= 0 call__main_.call_controleur2.diff.next))
(define-fun .def_791 () Bool (not .def_790))
(define-fun .def_792 () Bool (= call__main_.call_controleur2.ite2.next .def_791))
(define-fun .def_789 () Bool (not call__main_.call_controleur2.retard))
(define-fun .def_793 () Bool (or .def_789 .def_792))
(define-fun .def_784 () Bool (<= call__main_.call_controleur2.diff.next (- 10)))
(define-fun .def_786 () Bool (= .def_784 call__main_.call_controleur2.ite2.next))
(define-fun .def_787 () Bool (or call__main_.call_controleur2.retard .def_786))
(define-fun .def_780 () Bool (<= 10 call__main_.call_controleur2.diff.next))
(define-fun .def_781 () Bool (= call__main_.call_controleur2.ite.next .def_780))
(define-fun .def_782 () Bool (or call__main_.call_controleur2.avance .def_781))
(define-fun .def_775 () Bool (<= call__main_.call_controleur2.diff.next 0))
(define-fun .def_776 () Bool (not .def_775))
(define-fun .def_778 () Bool (= .def_776 call__main_.call_controleur2.ite.next))
(define-fun .def_773 () Bool (not call__main_.call_controleur2.avance))
(define-fun .def_779 () Bool (or .def_773 .def_778))
(define-fun .def_783 () Bool (and .def_779 .def_782))
(define-fun .def_788 () Bool (and .def_783 .def_787))
(define-fun .def_794 () Bool (and .def_788 .def_793))
(define-fun .def_771 () Bool (= call__main_.call_controleur.ite2.next call__main_.call_controleur.flby2.next))
(define-fun .def_768 () Bool (= call__main_.call_controleur.ite.next call__main_.call_controleur.flby.next))
(define-fun .def_761 () Bool (<= 0 call__main_.call_controleur.diff.next))
(define-fun .def_762 () Bool (not .def_761))
(define-fun .def_763 () Bool (= call__main_.call_controleur.ite2.next .def_762))
(define-fun .def_760 () Bool (not call__main_.call_controleur.retard))
(define-fun .def_764 () Bool (or .def_760 .def_763))
(define-fun .def_755 () Bool (<= call__main_.call_controleur.diff.next (- 10)))
(define-fun .def_757 () Bool (= .def_755 call__main_.call_controleur.ite2.next))
(define-fun .def_758 () Bool (or call__main_.call_controleur.retard .def_757))
(define-fun .def_751 () Bool (<= 10 call__main_.call_controleur.diff.next))
(define-fun .def_752 () Bool (= call__main_.call_controleur.ite.next .def_751))
(define-fun .def_753 () Bool (or call__main_.call_controleur.avance .def_752))
(define-fun .def_746 () Bool (<= call__main_.call_controleur.diff.next 0))
(define-fun .def_747 () Bool (not .def_746))
(define-fun .def_749 () Bool (= .def_747 call__main_.call_controleur.ite.next))
(define-fun .def_744 () Bool (not call__main_.call_controleur.avance))
(define-fun .def_750 () Bool (or .def_744 .def_749))
(define-fun .def_754 () Bool (and .def_750 .def_753))
(define-fun .def_759 () Bool (and .def_754 .def_758))
(define-fun .def_765 () Bool (and .def_759 .def_764))
(define-fun .def_742 () Bool (= call__main_.call_hypothese2.ite4.next call__main_.call_hypothese2.flby2.next))
(define-fun .def_737 () Bool (and call__main_.call_hypothese2.ite2.next call__main_.call_hypothese2.ite.next))
(define-fun .def_739 () Bool (= .def_737 call__main_.call_hypothese2.flby.next))
(define-fun .def_625 () Bool (<= 9 call__main_.call_hypothese2.c))
(define-fun .def_735 () Bool (or call__main_.call_hypothese2.ite2.next .def_625))
(define-fun .def_733 () Bool (= call__main_.call_hypothese.ite4.next call__main_.call_hypothese.flby2.next))
(define-fun .def_728 () Bool (and call__main_.call_hypothese.ite2.next call__main_.call_hypothese.ite.next))
(define-fun .def_730 () Bool (= .def_728 call__main_.call_hypothese.flby.next))
(define-fun .def_647 () Bool (<= 9 call__main_.call_hypothese.c))
(define-fun .def_726 () Bool (or call__main_.call_hypothese.ite2.next .def_647))
(define-fun .def_724 () Bool (= call__main_.ite3.next call__main_.flby3.next))
(define-fun .def_721 () Bool (= call__main_.ite2.next call__main_.flby2.next))
(define-fun .def_718 () Bool (= call__main_.ite.next call__main_.flby.next))
(define-fun .def_715 () Bool (or call__main_.retard1 call__main_.call_hypothese2.ite.next))
(define-fun .def_713 () Bool (or call__main_.retard0 call__main_.call_hypothese.ite.next))
(define-fun .def_706 () Bool (and call__main_.avance1 call__main_.avance1.next))
(define-fun .def_709 () Bool (not .def_706))
(define-fun .def_708 () Bool (= call__main_.call_hypothese2.ite3.next call__main_.call_hypothese2.ite4.next))
(define-fun .def_710 () Bool (or .def_708 .def_709))
(define-fun .def_704 () Bool (= call__main_.call_hypothese2.ite4.next 0))
(define-fun .def_707 () Bool (or .def_704 .def_706))
(define-fun .def_711 () Bool (and .def_707 .def_710))
(define-fun .def_696 () Bool (and call__main_.avance0 call__main_.avance0.next))
(define-fun .def_699 () Bool (not .def_696))
(define-fun .def_698 () Bool (= call__main_.call_hypothese.ite3.next call__main_.call_hypothese.ite4.next))
(define-fun .def_700 () Bool (or .def_698 .def_699))
(define-fun .def_694 () Bool (= call__main_.call_hypothese.ite4.next 0))
(define-fun .def_697 () Bool (or .def_694 .def_696))
(define-fun .def_701 () Bool (and .def_697 .def_700))
(define-fun .def_687 () Bool (<= diff0 20))
(define-fun .def_686 () Bool (<= (- 10) diff0))
(define-fun .def_688 () Bool (and .def_686 .def_687))
(define-fun .def_685 () Bool (not call_Sofar.Sofar.next))
(define-fun .def_689 () Bool (or .def_685 .def_688))
(define-fun .def_691 () Bool (= .def_689 flby.next))
(define-fun .def_680 () Bool (= call__main_.nS call__main_.ite3.next))
(define-fun .def_681 () Bool (or param__S_.next .def_680))
(define-fun .def_675 () Int (* (- 1) call__main_.ite3.next))
(define-fun .def_676 () Int (+ call__main_.nS .def_675))
(define-fun .def_677 () Bool (= .def_676 (- 1)))
(define-fun .def_664 () Bool (not param__S_.next))
(define-fun .def_678 () Bool (or .def_664 .def_677))
(define-fun .def_671 () Bool (not call__main_.retard0))
(define-fun .def_670 () Bool (= .def_664 call__main_.call_hypothese.ite.next))
(define-fun .def_672 () Bool (or .def_670 .def_671))
(define-fun .def_667 () Bool (not call__main_.retard1))
(define-fun .def_666 () Bool (= .def_664 call__main_.call_hypothese2.ite.next))
(define-fun .def_668 () Bool (or .def_666 .def_667))
(define-fun .def_673 () Bool (and .def_668 .def_672))
(define-fun .def_679 () Bool (and .def_673 .def_678))
(define-fun .def_682 () Bool (and .def_679 .def_681))
(define-fun .def_659 () Bool (= call__main_.nB0 call__main_.ite.next))
(define-fun .def_660 () Bool (or param__B0_.next .def_659))
(define-fun .def_654 () Int (* (- 1) call__main_.ite.next))
(define-fun .def_655 () Int (+ call__main_.nB0 .def_654))
(define-fun .def_656 () Bool (= .def_655 (- 1)))
(define-fun .def_643 () Bool (not param__B0_.next))
(define-fun .def_657 () Bool (or .def_643 .def_656))
(define-fun .def_641 () Bool (= call__main_.call_hypothese.c call__main_.call_hypothese.ite3.next))
(define-fun .def_651 () Bool (or .def_641 param__B0_.next))
(define-fun .def_648 () Bool (not .def_647))
(define-fun .def_646 () Bool (= .def_643 call__main_.call_hypothese.ite2.next))
(define-fun .def_649 () Bool (or .def_646 .def_648))
(define-fun .def_644 () Bool (or .def_641 .def_643))
(define-fun .def_650 () Bool (and .def_644 .def_649))
(define-fun .def_652 () Bool (and .def_650 .def_651))
(define-fun .def_658 () Bool (and .def_652 .def_657))
(define-fun .def_661 () Bool (and .def_658 .def_660))
(define-fun .def_637 () Bool (= call__main_.nB1 call__main_.ite2.next))
(define-fun .def_638 () Bool (or param__B1_.next .def_637))
(define-fun .def_632 () Int (* (- 1) call__main_.ite2.next))
(define-fun .def_633 () Int (+ call__main_.nB1 .def_632))
(define-fun .def_634 () Bool (= .def_633 (- 1)))
(define-fun .def_621 () Bool (not param__B1_.next))
(define-fun .def_635 () Bool (or .def_621 .def_634))
(define-fun .def_619 () Bool (= call__main_.call_hypothese2.c call__main_.call_hypothese2.ite3.next))
(define-fun .def_629 () Bool (or .def_619 param__B1_.next))
(define-fun .def_626 () Bool (not .def_625))
(define-fun .def_624 () Bool (= .def_621 call__main_.call_hypothese2.ite2.next))
(define-fun .def_627 () Bool (or .def_624 .def_626))
(define-fun .def_622 () Bool (or .def_619 .def_621))
(define-fun .def_628 () Bool (and .def_622 .def_627))
(define-fun .def_630 () Bool (and .def_628 .def_629))
(define-fun .def_636 () Bool (and .def_630 .def_635))
(define-fun .def_639 () Bool (and .def_636 .def_638))
(define-fun .def_662 () Bool (and .def_639 .def_661))
(define-fun .def_683 () Bool (and .def_662 .def_682))
(define-fun .def_692 () Bool (and .def_683 .def_691))
(define-fun .def_702 () Bool (and .def_692 .def_701))
(define-fun .def_712 () Bool (and .def_702 .def_711))
(define-fun .def_714 () Bool (and .def_712 .def_713))
(define-fun .def_716 () Bool (and .def_714 .def_715))
(define-fun .def_719 () Bool (and .def_716 .def_718))
(define-fun .def_722 () Bool (and .def_719 .def_721))
(define-fun .def_725 () Bool (and .def_722 .def_724))
(define-fun .def_727 () Bool (and .def_725 .def_726))
(define-fun .def_731 () Bool (and .def_727 .def_730))
(define-fun .def_734 () Bool (and .def_731 .def_733))
(define-fun .def_736 () Bool (and .def_734 .def_735))
(define-fun .def_740 () Bool (and .def_736 .def_739))
(define-fun .def_743 () Bool (and .def_740 .def_742))
(define-fun .def_766 () Bool (and .def_743 .def_765))
(define-fun .def_769 () Bool (and .def_766 .def_768))
(define-fun .def_772 () Bool (and .def_769 .def_771))
(define-fun .def_795 () Bool (and .def_772 .def_794))
(define-fun .def_798 () Bool (and .def_795 .def_797))
(define-fun .def_801 () Bool (and .def_798 .def_800))
(define-fun .def_806 () Bool (and .def_801 .def_805))
(define-fun .def_914 () Bool (and .def_806 .def_913))
(assert .def_914)
